10
5
1005002
0
0
86 54 69 92 47 
1
0
87 45 68 84 44 
2
0
81 45 68 84 47 
3
0
79 53 73 84 43 
4
0
82 50 73 89 46 
5
0
88 52 65 84 51 
6
0
82 50 74 90 47 
7
0
80 51 66 83 51 
8
0
80 47 69 85 53 
9
0
81 55 72 85 43 
